NAME : ulysses22.tspPreorder.793.tour
COMMENT : Length = 793
COMMENT : Found by LKH [Keld Helsgaun] Sat May  2 17:00:15 2020
TYPE : TOUR
DIMENSION : 22
TOUR_SECTION
1
8
22
18
4
17
2
3
11
9
10
19
21
20
7
6
5
15
14
13
12
16
-1
EOF
